 $molecule 
 0 1
 C -2.984249 -0.764724 0.193156 
 C -1.479466 -0.638439 0.407661 
 C -1.151592 0.821388 0.397192 
 C 0.313181 1.102415 0.599703 
 O 1.114675 0.534969 -0.376406 
 O 2.346887 0.825968 -0.123800 
 C 3.263046 -0.120974 -0.520128 
 O 3.101929 -1.354146 0.055529 
 H -3.529371 -0.345447 1.081094 
 H -3.290481 -1.794955 -0.034988 
 H -3.250662 -0.112857 -0.666930 
 H -1.172446 -1.151189 1.336463 
 H -0.996916 -1.111849 -0.484892 
 H -1.519421 1.250890 -0.546228 
 H -1.698263 1.306490 1.230755 
 H 0.425554 2.214773 0.626420 
 H 0.623581 0.734430 1.595032 
 H 4.272381 0.252165 -0.196720 
 H 3.266968 -0.214625 -1.629828 
 H 2.344664 -1.434284 0.671479 
 $end 


 $rem 
 JOBTYPE OPT 
 EXCHANGE B3LYP
 CORRELATION NONE
 UNRESTRICTED TRUE 
 GEOM_OPT_MAX_CYCLES  285
 GEOM_OPT_TOL_DISPLACEMENT 2500 
 GEOM_OPT_TOL_GRADIENT     800 
 GEOM_OPT_TOL_ENERGY	5000 
 SCF_ALGORITHM rca_diis 
 SCF_MAX_CYCLES 250 
 SCF_CONVERGENCE 6 
 BASIS 6-31G* 
 NBO 1 
 print_orbitals 250 
 MOLDEN_FORMAT TRUE 
 $end 

