 $molecule 
 0 1
 C 1.686430 -0.245568 0.911626 
 C 3.061109 0.440815 0.874912 
 C 3.462957 0.741117 -0.528115 
 O 3.509117 -0.474579 -1.236952 
 C 0.697022 0.667801 0.309065 
 C -0.763462 0.102828 0.340646 
 C -1.568232 1.159343 -0.306222 
 C -3.036740 0.991360 -0.425729 
 O -3.501004 2.194574 -1.053144 
 C -0.658344 -1.241337 -0.232979 
 C -1.905366 -2.056650 -0.351461 
 O -2.545160 -2.237832 0.854379 
 H 1.411853 -0.504834 1.948473 
 H 1.763919 -1.191680 0.312257 
 H 2.979369 1.403473 1.422093 
 H 3.751132 -0.238067 1.401461 
 H 2.759544 1.455930 -0.980125 
 H 4.512867 1.140436 -0.585509 
 H 3.662400 -1.192548 -0.603106 
 H 0.863608 0.898780 -0.759553 
 H 0.650204 1.611667 0.876877 
 H -1.035924 -0.029968 1.434886 
 H -1.434169 2.138906 0.271774 
 H -1.129178 1.465257 -1.312300 
 H -3.506824 1.016125 0.576985 
 H -3.431536 0.198998 -1.037566 
 H -3.091054 2.975421 -0.599512 
 H -0.033298 -1.838841 0.529806 
 H -0.015351 -1.312272 -1.144669 
 H -2.582644 -1.805682 -1.169404 
 H -1.523893 -3.129227 -0.611438 
 H -3.009353 -3.103746 0.872542 
 $end 


 $rem 
 JOBTYPE OPT 
 EXCHANGE B3LYP
 CORRELATION NONE
 UNRESTRICTED TRUE 
 GEOM_OPT_MAX_CYCLES  285
 GEOM_OPT_TOL_DISPLACEMENT 2500 
 GEOM_OPT_TOL_GRADIENT     800 
 GEOM_OPT_TOL_ENERGY	5000 
 SCF_ALGORITHM rca_diis 
 SCF_MAX_CYCLES 250 
 SCF_CONVERGENCE 6 
 BASIS 6-31G* 
 NBO 1 
 print_orbitals 250 
 MOLDEN_FORMAT TRUE 
 $end 

