 $molecule 
 0 1
 C 0.873665 0.187151 0.047752 
 C -0.467390 -0.480966 -0.046917 
 O -1.490203 0.355225 -0.417040 
 H 0.796952 1.300047 0.043713 
 H 1.335319 -0.167366 1.012222 
 H 1.584798 -0.141936 -0.747037 
 H -0.760656 -0.992388 0.912352 
 H -0.396304 -1.306294 -0.793036 
 H -1.476181 1.246529 -0.012009 
 $end 


 $rem 
 JOBTYPE OPT 
 EXCHANGE B3LYP
 CORRELATION NONE
 UNRESTRICTED TRUE 
 GEOM_OPT_MAX_CYCLES  285
 GEOM_OPT_TOL_DISPLACEMENT 2500 
 GEOM_OPT_TOL_GRADIENT     800 
 GEOM_OPT_TOL_ENERGY	5000 
 SCF_ALGORITHM rca_diis 
 SCF_MAX_CYCLES 250 
 SCF_CONVERGENCE 6 
 BASIS 6-31G* 
 NBO 1 
 print_orbitals 250 
 MOLDEN_FORMAT TRUE 
 $end 

