 $molecule 
 0 1
 C 1.163740 -0.000070 0.066180 
 N 2.625570 -0.028180 0.053260 
 C 3.119420 0.938590 0.497600 
 O 3.602700 1.911880 0.944940 
 H 0.784770 -0.933390 -0.362790 
 H 0.769900 0.826160 -0.537780 
 H 0.769900 0.079620 1.086500 
 $end 


 $rem 
 JOBTYPE OPT 
 EXCHANGE B3LYP
 CORRELATION NONE
 UNRESTRICTED TRUE 
 GEOM_OPT_MAX_CYCLES  285
 GEOM_OPT_TOL_DISPLACEMENT 2500 
 GEOM_OPT_TOL_GRADIENT     800 
 GEOM_OPT_TOL_ENERGY	5000 
 SCF_ALGORITHM rca_diis 
 SCF_MAX_CYCLES 250 
 SCF_CONVERGENCE 6 
 BASIS 6-31G* 
 NBO 1 
 print_orbitals 250 
 MOLDEN_FORMAT TRUE 
 $end 

